dimension	3
boundary	f f f 
units		real
newton          on

atom_style	srsim neuneu.bngl neuneu.geo neuneu.tgeo 23456


lattice none
region		        Nukleus block -170  170  -20  20  -170  170 units box
create_box	        10 Nukleus

# set initial values e.g. bond forces etc.
start_state_srsim       coeffs
start_state_srsim       atoms

neighbor                10 bin

# Molecule groups:


# Stimulation:
#                              Brownian   Temp Temp damping randomSeed
fix   		     2   all   langevin   300  300  16.0   23456
fix		     1   all   nve                 # not needed if fix rigid is used!
#fix                 1   all   rigid   molecule    # use rigid molecules:
#
#  SRSim Reactions:  id  group fixName | nEvery  randomSeed  preFactBindR preFactBreakR preFactExchangeR preFactModifyR_1 preFactModifyR_2
fix 		     3   all   srsim     1       45678          1.0           1.0            1.0                1.0             1.0

# wall/reflect can't be used with rigid bodies... so use drag instead!
fix                  4   all   wall/reflect xlo xhi ylo yhi zlo zhi
#                                          fMag Delta
# fix                  5   all   drag 0 0 0    5  180
fix                  6   all   drag NULL 0 NULL    5  1

#


# Add some more molecules:


# neighbour lists:
# neigh_modify	exclude molecule ABC

# Dumps:
timestep	30
#thermo		5000
thermo		500

dump            2 all srsim 5000 neuneu.srsim.gdat

dump            1 all atom/neuneu/charge 50 neuneu.lammpstrj
dump_modify     1 scale yes

#dump_modify     1 every 5000
run             5000

