dimension	3
boundary	f f f 
units		real
newton          on

atom_style	srsim spass.bngl spass.geo spass.tgeo 23455


lattice none
region		        Nukleus block 0  200  0  30 0  30 units box
create_box	        10 Nukleus

#                       name
start_state_srsim       coeffs
start_state_srsim       atoms


# Molecule groups:


# Stimulation:
#                              Brownian Temp Temp damping randomSeed
fix 		     2   all   langevin  300  300  200.0   23456
fix		     1   all   nve

#  SRSim Reactions:  id  group fixName | nEvery  randomSeed  preFactBindR preFactBreakR preFactExchangeR preFactModifyR_1 preFactModifyR_2
fix 		     3   all   srsim     1       45678          1.0           1.0            1.0                  1.0                1.0
fix                  4   all   wall/reflect xlo xhi ylo yhi zlo zhi


# Add some more molecules:


# neighbour lists:
# neigh_modify	exclude molecule ABC

# Dumps:
timestep	1.0
thermo		500

dump            2 all srsim 50 spass.srsim.gdat

dump            1 all atom 5 spass.lammpstrj
dump_modify     1 scale yes
dump_modify     1 every 50




# Stimulation
dump_modify     1 every 500
run 		500000
write_restart   spass.restart

dump_modify     1 every 500
run 		1000000
write_restart   spass.restart

dump_modify     1 every 500
run 		1000000
write_restart   spass.restart

dump_modify     1 every 500
run 		1000000
write_restart   spass.restart

dump_modify     1 every 5
run 		15000

write_restart spass.restart

#undump          1
#runmodif_srsim  addMols 0 60 0 60 0 60 P(a,x!1).P(a,x!1) 100
#group           mobile subtract all    immobile1
#group           mobile subtract mobile immobile2
#dump            3 all atom 5 spass2.lammpstrj
#run 		50000
# 


